n = 40;
lu = [|-1144, 1019
      |-1498, 1437
      |-597, -474
      |-1029, -686
      |-1181, 1416
      |1171, 1433
      |-1244, 633
      |128, 818
      |-1478, -1470
      |-1217, -705
      |-648, 469
      |-1492, 865
      |-786, 698
      |1061, 1332
      |632, 1272
      |-698, 118
      |239, 813
      |-1574, -461
      |-947, 1508
      |131, 1259
      |-462, -207
      |-964, -719
      |-222, 1527
      |-1221, -1182
      |-1204, -44
      |-192, -130
      |-517, 872
      |-1423, 1388
      |281, 596
      |-1089, -50
      |-1278, 661
      |-400, 974
      |-119, 933
      |-813, 764
      |-1316, 1285
      |-1413, 1108
      |-667, 1566
      |-1274, -415
      |-1187, -647
      |-462, -44|];
